c 1 n8
c 2 n6
c 5 n4
c 8 n2
c 30 S
p cnf 41 94
-3 1 0
-3 2 0
3 -1 -2 0
4 3 0
-4 -3 0
-6 4 0
-6 5 0
6 -4 -5 0
7 6 0
-7 -6 0
-9 2 0
-9 8 0
9 -2 -8 0
10 9 0
-10 -9 0
-11 7 0
-11 10 0
11 -7 -10 0
12 11 0
-12 -11 0
13 12 0
-13 -12 0
-14 8 0
-14 5 0
14 -8 -5 0
15 14 0
-15 -14 0
16 8 0
-16 -8 0
17 5 0
-17 -5 0
-18 16 0
-18 17 0
18 -16 -17 0
19 18 0
-19 -18 0
-20 15 0
-20 19 0
20 -15 -19 0
21 20 0
-21 -20 0
22 2 0
-22 -2 0
-23 21 0
-23 22 0
23 -21 -22 0
24 23 0
-24 -23 0
-25 20 0
-25 2 0
25 -20 -2 0
26 25 0
-26 -25 0
-27 24 0
-27 26 0
27 -24 -26 0
28 27 0
-28 -27 0
29 -13 0
29 -28 0
-29 13 28 0
31 30 0
-31 -30 0
32 -29 0
32 -31 0
-32 29 31 0
33 -12 0
33 -27 0
-33 12 27 0
34 -33 0
34 -31 0
-34 33 31 0
-35 32 0
-35 34 0
35 -32 -34 0
36 -12 0
36 -28 0
-36 12 28 0
37 -36 0
37 -30 0
-37 36 30 0
-38 35 0
-38 37 0
38 -35 -37 0
39 -13 0
39 -27 0
-39 13 27 0
40 -39 0
40 -30 0
-40 39 30 0
-41 38 0
-41 40 0
41 -38 -40 0
-41 0
